db/data/94991704482461907140481662025975790.z3.out
-------------------
2500.146969516
